2027412
21 15 19591
15 6 10550
6 2 7286
2 23 124907
23 3 112203
3 7 5029
7 10 141065
10 17 52694
17 27 183398
27 12 88213
12 8 61690
8 28 297857
28 30 11025
30 4 20127
4 9 8395
9 18 9870
18 29 59312
29 5 57809
5 14 14272
14 13 19482
13 25 1644
25 26 23242
26 22 11584
22 11 10310
11 16 17050
16 19 30639
19 20 59143
20 1 190821
1 24 54636
24 21 323567
